experiments/eusolverbv/1/TrainGenes/1011110110111111101110000010001011101110011/188_.sl

(set-logic BV)

(define-fun shr1 ((x (BitVec 64))) (BitVec 64) (bvlshr x #x0000000000000001))
(define-fun shr4 ((x (BitVec 64))) (BitVec 64) (bvlshr x #x0000000000000004))
(define-fun shr16 ((x (BitVec 64))) (BitVec 64) (bvlshr x #x0000000000000010))
(define-fun shl1 ((x (BitVec 64))) (BitVec 64) (bvshl x #x0000000000000001))
(define-fun if0 ((x (BitVec 64)) (y (BitVec 64)) (z (BitVec 64))) (BitVec 64) (ite (= x #x0000000000000001) y z))
(define-fun func23  ((A (BitVec 64)) (B (BitVec 64)) (C (BitVec 64)) (D (BitVec 64)) ) (BitVec 64) (bvand (bvlshr (bvlshr C  D ) B ) A ))
(define-fun func24  ((A (BitVec 64)) (B (BitVec 64)) (C (BitVec 64)) ) (BitVec 64) (bvand (bvlshr B  C ) A ))
(define-fun func25  ((A (BitVec 64)) (B (BitVec 64)) ) (BitVec 64) (bvand (bvlshr B  #x0000000000000001 ) A ))
(define-fun func26  ((A (BitVec 64)) (B (BitVec 64)) ) (BitVec 64) (bvand (bvlshr B  #x0000000000000010 ) A ))
(define-fun func27  ((A (BitVec 64)) (B (BitVec 64)) ) (BitVec 64) (bvand (bvlshr B  #x0000000000000004 ) A ))
(define-fun func28  ((A (BitVec 64)) (B (BitVec 64)) ) (BitVec 64) (bvand (bvlshr A  B ) #x0000000000000001 ))
(define-fun func29  ((A (BitVec 64)) ) (BitVec 64) (bvand A  #x0000000000000001 ))
(define-fun func30  ((A (BitVec 64)) (B (BitVec 64)) (C (BitVec 64)) (D (BitVec 64)) ) (BitVec 64) (bvlshr (bvlshr (bvlshr C  D ) B ) A ))
(define-fun func31  ((A (BitVec 64)) (B (BitVec 64)) (C (BitVec 64)) ) (BitVec 64) (bvlshr (bvlshr (bvlshr C  #x0000000000000010 ) B ) A ))
(define-fun func32  ((A (BitVec 64)) (B (BitVec 64)) (C (BitVec 64)) ) (BitVec 64) (bvlshr (bvlshr B  C ) A ))
(define-fun func33  ((A (BitVec 64)) (B (BitVec 64)) ) (BitVec 64) (bvlshr (bvlshr B  #x0000000000000010 ) A ))
(define-fun func34  ((A (BitVec 64)) (B (BitVec 64)) ) (BitVec 64) (bvlshr (bvlshr B  #x0000000000000004 ) A ))
(define-fun func35  ((A (BitVec 64)) (B (BitVec 64)) ) (BitVec 64) (bvlshr (bvlshr B  #x0000000000000001 ) A ))
(define-fun func36  ((A (BitVec 64)) (B (BitVec 64)) ) (BitVec 64) (bvlshr (bvlshr A  B ) #x0000000000000001 ))
(define-fun func37  ((A (BitVec 64)) (B (BitVec 64)) ) (BitVec 64) (bvlshr (bvlshr A  B ) #x0000000000000004 ))
(define-fun func38  ((A (BitVec 64)) (B (BitVec 64)) ) (BitVec 64) (bvlshr A  B ))
(define-fun func39  ((A (BitVec 64)) (B (BitVec 64)) (C (BitVec 64)) ) (BitVec 64) (bvlshr (bvshl B  C ) A ))
(define-fun func40  ((A (BitVec 64)) (B (BitVec 64)) ) (BitVec 64) (bvlshr (bvshl B  #x0000000000000001 ) A ))
(define-fun func41  ((A (BitVec 64)) (B (BitVec 64)) (C (BitVec 64)) ) (BitVec 64) (bvlshr (bvadd B  C ) A ))
(define-fun func42  ((A (BitVec 64)) (B (BitVec 64)) ) (BitVec 64) (bvlshr (bvnot B ) A ))
(define-fun func43  ((A (BitVec 64)) ) (BitVec 64) (bvlshr (bvnot A ) #x0000000000000010 ))
(define-fun func44  ((A (BitVec 64)) (B (BitVec 64)) (C (BitVec 64)) ) (BitVec 64) (bvor (bvlshr B  C ) A ))
(define-fun func45  ((A (BitVec 64)) ) (BitVec 64) (bvor A  #x0000000000000001 ))
(define-fun func46  ((A (BitVec 64)) (B (BitVec 64)) (C (BitVec 64)) ) (BitVec 64) (bvshl (bvlshr B  C ) A ))
(define-fun func47  ((A (BitVec 64)) (B (BitVec 64)) ) (BitVec 64) (bvshl (bvlshr B  #x0000000000000001 ) A ))
(define-fun func48  ((A (BitVec 64)) (B (BitVec 64)) ) (BitVec 64) (bvshl (bvlshr A  B ) #x0000000000000001 ))
(define-fun func50  ((A (BitVec 64)) (B (BitVec 64)) ) (BitVec 64) (bvshl (bvnot B ) A ))
(define-fun func51  ((A (BitVec 64)) ) (BitVec 64) (bvshl (bvnot A ) #x0000000000000001 ))
(define-fun func52  ((A (BitVec 64)) (B (BitVec 64)) (C (BitVec 64)) ) (BitVec 64) (bvadd (bvlshr B  C ) A ))
(define-fun func53  ((A (BitVec 64)) ) (BitVec 64) (bvadd A  #x0000000000000001 ))
(define-fun func54  ((A (BitVec 64)) (B (BitVec 64)) (C (BitVec 64)) ) (BitVec 64) (bvadd (bvshl B  C ) A ))
(define-fun func55  ((A (BitVec 64)) (B (BitVec 64)) ) (BitVec 64) (bvadd (bvshl B  #x0000000000000001 ) A ))
(define-fun func56  ((A (BitVec 64)) ) (BitVec 64) (bvnot (bvshl A  #x0000000000000001 )))
(synth-fun f ( (x (BitVec 64))) (BitVec 64)
(
(Start (BitVec 64) (
   #x0000000000000000
   #x0000000000000001
   x
   (func23 Start Start Start Start)
   (func25 Start Start)
   (func26 Start Start)
   (func27 Start Start)
   (func28 Start Start)
   (func30 Start Start Start Start)
   (func31 Start Start Start)
   (func33 Start Start)
   (func34 Start Start)
   (func35 Start Start)
   (func36 Start Start)
   (func37 Start Start)
   (func38 Start Start)
   (func39 Start Start Start)
   (func41 Start Start Start)
   (func42 Start Start)
   (func43 Start)
   (func50 Start Start)
   (func54 Start Start Start)
   (func56 Start)
   (shr1 Start)
   (bvor Start Start)
   (bvxor Start Start)
   (if0 Start Start Start)
))
))
(constraint (= (f #x7b445878f90ee82c) #x7b445878f90ee82d))
(constraint (= (f #xe5176e0d332ebd2e) #xe5176e0d332ebd2f))
(constraint (= (f #xa8f1f51ecb240d3a) #xa8f1f51ecb240d3b))
(constraint (= (f #x822a504ec76bca22) #x822a504ec76bca23))
(constraint (= (f #x75e511fea382185c) #x75e511fea382185d))
(constraint (= (f #x30f65b148af8c0d3) #x30f65b148af8c0d4))
(constraint (= (f #x57ef3bdea2b198e3) #x57ef3bdea2b198e4))
(constraint (= (f #x1129bfbcbed5f793) #x1129bfbcbed5f794))
(constraint (= (f #x9421122ff5786073) #x9421122ff5786074))
(constraint (= (f #xa9b337be17be232b) #xa9b337be17be232c))
(constraint (= (f #x0000000000000000) #x0000000000000001))
(constraint (= (f #xa1c06867479c4b54) #xa1e1e86f67dfdf5f))
(constraint (= (f #x64ff87b6e6d2dc60) #x64ffffb7f6f6defc))
(constraint (= (f #x9dd195652971ff78) #x9dddd5f56d79ffff))
(constraint (= (f #xed8315444b57f05e) #xedef97554f5ff7fe))
(constraint (= (f #x2a8003a3375e688a) #x2aaa83a3b77f7eea))
(constraint (= (f #x06c21c2f2c308489) #x06c21c2f2c30848b))
(constraint (= (f #x8aaa4276df904c9d) #x8aaa4276df904c9f))
(constraint (= (f #xa40931e0f19c5799) #xa40931e0f19c579b))
(constraint (= (f #x7f9d752908f4341d) #x7f9d752908f4341f))
(constraint (= (f #xf414d574a03c6295) #xf414d574a03c6297))
(constraint (= (f #x0a98a67953e7c6eb) #x0a9abeff7bf7e7ef))
(constraint (= (f #x2c978bd6f76d9deb) #x2cbf9fdff7fffdff))
(constraint (= (f #x92ff74c131eb50f7) #x92fffff5f1fbfbf7))
(constraint (= (f #x0272a135c76c1127) #x0272f3b5f7ef7d37))
(constraint (= (f #x925d1517004370bb) #x92df5d17174373fb))
(constraint (= (f #xf6a268a682ec4c35) #xf6f6eaeea6eeec7d))
(constraint (= (f #xf93e9c3389c1b809) #xf9ffbebfbbc9f9b9))
(constraint (= (f #xad6312fd1d6df735) #xadef73fffd7dfff7))
(constraint (= (f #x2c7166b3ee6a452d) #x2c7d77f7ffee6f6d))
(constraint (= (f #x063f39093aadf20d) #x063f3f393bbfffff))
(constraint (= (f #x2a10a75c9c3f0f41) #x2a10a75c9c3f0f43))
(constraint (= (f #x8961b3d8b2ed6762) #x8961b3d8b2ed6763))
(constraint (= (f #x189abbf03aae9e62) #x189abbf03aae9e63))
(constraint (= (f #xd549bf9c6f4730d4) #xd549bf9c6f4730d5))
(constraint (= (f #x87318ff3bc27060b) #x87b7bfffffbf270f))
(constraint (= (f #x54692700aced5254) #x54692700aced5255))
(constraint (= (f #x41844837151abf10) #x41c5cc7f371fbfbf))
(constraint (= (f #x26e52a5d061c26be) #x26e7ef7f5f1e3ebe))
(constraint (= (f #x16a9fc935be33659) #x16bffdffdbfbf77f))
(constraint (= (f #xa2a99c8b61ea213e) #xa2a99c8b61ea213f))
(constraint (= (f #x83bed80ee07f02d3) #x83bed80ee07f02d4))
(constraint (= (f #x19b3b44d1ba46e3e) #x19b3b44d1ba46e3f))
(constraint (= (f #x560ab339cbccfa95) #x565ebbbbfbcffeff))
(constraint (= (f #xfcc2ce28a6d6da21) #xfcc2ce28a6d6da23))
(constraint (= (f #x2a1125ae8de0a42f) #x2a3b35afafede4af))
(constraint (= (f #x10d7642937017a46) #x10d7642937017a47))
(constraint (= (f #x1ddf3b09c19129f9) #x1ddf3b09c19129fb))
(constraint (= (f #x91d345ba6802f996) #x91d345ba6802f997))
(constraint (= (f #x97de6c449535b6f6) #x97dffe6cd5b5b7f6))
(constraint (= (f #xb9b6add389ba6a07) #xb9b6add389ba6a08))
(constraint (= (f #x8a7b2adf2fa51dc8) #x8a7b2adf2fa51dc9))
(constraint (= (f #x07f63501024dbcb0) #x07f63501024dbcb1))
(constraint (= (f #x8580871826e569d7) #x8585879f3ee7edff))
(constraint (= (f #x75c06c8212dc8893) #x75c06c8212dc8894))
(constraint (= (f #xb97e91aa6683409b) #xb9ffffbbeee7c3db))
(check-synth)
