experiments/eusolverbv/1/TrainGenes/1011110110111111101110000010001011101110011/188_.out
(define-fun f ((x (BitVec 64))) (BitVec 64)
     (if0 (func28 x #x0000000000000000) (if0 (func27 #x0000000000000001 (func43 x)) (bvor (func34 #x0000000000000000 (func34 #x0000000000000000 x)) x) (if0 (func25 #x0000000000000001 x) (func41 #x0000000000000000 x #x0000000000000001) (func54 x #x0000000000000001 #x0000000000000001))) (if0 (func27 #x0000000000000001 (func43 x)) (bvor x #x0000000000000001) (bvor (func34 #x0000000000000000 (func34 #x0000000000000000 x)) x))))
158.7036076951772
